c
p cnf 48 162
-2 -7 3 0
-2 -8 4 0
-3 7 2 0
-3 -12 4 0
-4 8 2 0
-4 12 3 0
2 -3 7 0
2 -4 8 0
-7 3 -2 0
-7 -12 8 0
-8 4 -2 0
-8 12 7 0
3 -2 -7 0
3 -4 12 0
7 2 -3 0
7 -8 12 0
-12 4 -3 0
-12 8 -7 0
4 -2 -8 0
4 -3 -12 0
8 2 -4 0
8 -7 -12 0
12 3 -4 0
12 7 -8 0
-2 18 0
2 21 0
-7 23 0
7 26 0
-8 24 0
8 30 0
-18 -19 -7 23 0
-18 -19 7 26 0
-18 -20 -8 24 0
-18 -20 8 30 0
-19 -20 -12 28 0
-19 -20 12 31 0
-21 -23 -3 19 0
-21 -23 3 25 0
-21 -24 -4 20 0
-21 -24 4 29 0
-23 -24 -12 28 0
-23 -24 12 31 0
-25 -26 -2 18 0
-25 -26 2 21 0
-25 -28 -4 20 0
-25 -28 4 29 0
-26 -28 -8 24 0
-26 -28 8 30 0
-29 -30 -2 18 0
-29 -30 2 21 0
-29 -31 -3 19 0
-29 -31 3 25 0
-30 -31 -7 23 0
-30 -31 7 26 0
-17 0
-22 0
-27 0
-32 0
-17 33 0
-18 34 0
-19 35 0
-20 36 0
-33 34 0
-34 35 0
-35 36 0
-21 37 0
-22 38 0
-23 39 0
-24 40 0
-37 38 0
-38 39 0
-39 40 0
-25 41 0
-26 42 0
-27 43 0
-28 44 0
-41 42 0
-42 43 0
-43 44 0
-29 45 0
-30 46 0
-31 47 0
-32 48 0
-45 46 0
-46 47 0
-47 48 0
-18 -33 0
-19 -34 0
-20 -35 0
-22 -37 0
-23 -38 0
-24 -39 0
-26 -41 0
-27 -42 0
-28 -43 0
-30 -45 0
-31 -46 0
-32 -47 0
-17 -17 -17 -17 0
-17 -18 -18 -21 0
-17 -19 -19 -25 0
-17 -20 -20 -29 0
-18 -17 -21 -18 0
-18 -18 -22 -22 0
-18 -19 -23 -26 0
-18 -20 -24 -30 0
-19 -17 -25 -19 0
-19 -18 -26 -23 0
-19 -19 -27 -27 0
-19 -20 -28 -31 0
-20 -17 -29 -20 0
-20 -18 -30 -24 0
-20 -19 -31 -28 0
-20 -20 -32 -32 0
-21 -21 -17 -17 0
-21 -22 -18 -21 0
-21 -23 -19 -25 0
-21 -24 -20 -29 0
-22 -21 -21 -18 0
-22 -22 -22 -22 0
-22 -23 -23 -26 0
-22 -24 -24 -30 0
-23 -21 -25 -19 0
-23 -22 -26 -23 0
-23 -23 -27 -27 0
-23 -24 -28 -31 0
-24 -21 -29 -20 0
-24 -22 -30 -24 0
-24 -23 -31 -28 0
-24 -24 -32 -32 0
-25 -25 -17 -17 0
-25 -26 -18 -21 0
-25 -27 -19 -25 0
-25 -28 -20 -29 0
-26 -25 -21 -18 0
-26 -26 -22 -22 0
-26 -27 -23 -26 0
-26 -28 -24 -30 0
-27 -25 -25 -19 0
-27 -26 -26 -23 0
-27 -27 -27 -27 0
-27 -28 -28 -31 0
-28 -25 -29 -20 0
-28 -26 -30 -24 0
-28 -27 -31 -28 0
-28 -28 -32 -32 0
-29 -29 -17 -17 0
-29 -30 -18 -21 0
-29 -31 -19 -25 0
-29 -32 -20 -29 0
-30 -29 -21 -18 0
-30 -30 -22 -22 0
-30 -31 -23 -26 0
-30 -32 -24 -30 0
-31 -29 -25 -19 0
-31 -30 -26 -23 0
-31 -31 -27 -27 0
-31 -32 -28 -31 0
-32 -29 -29 -20 0
-32 -30 -30 -24 0
-32 -31 -31 -28 0
-32 -32 -32 -32 0
